(set-logic QF_ALIA)
(set-info :status unsat)
(declare-fun a_3 () (Array Int Int))
(declare-fun a_7 () (Array Int Int))
(declare-fun e_0 () Int)
(declare-fun e_1 () Int)
(declare-fun e_2 () Int)
(declare-fun e_4 () Int)
(declare-fun e_5 () Int)
(declare-fun e_6 () Int)
(declare-fun a () (Array Int Int))
(declare-fun i () Int)
(assert (= a_3 (store a e_0 e_2)))
(assert (= a_7 (store a e_4 e_6)))
(assert (= e_0 (+ i 1)))
(assert (= e_1 (select a i)))
(assert (= e_2 (+ e_1 1)))
(assert (= e_4 (+ i 0)))
(assert (= e_5 (select a e_0)))
(assert (= e_6 (- e_5 1)))
(assert (= a_3 a_7))
(assert (not (= e_2 e_5)))
(check-sat)
(exit)
